10	5
0	4	1	2	4	3
1	1	9
2	3	8	5	10
3	3	6	5	10
4	1	6
5	1	7
6	1	11
7	1	11
8	1	11
9	1	11
10	1	11
11	0
0	0	0	0	0	0	0
1	7	4	5	0	4	4
2	6	4	0	3	0	1
3	4	1	1	5	5	5
4	9	1	1	5	4	3
5	10	0	4	0	5	1
6	7	3	2	0	0	1
7	1	0	5	3	2	2
8	9	4	2	2	3	4
9	9	0	0	2	4	4
10	5	1	0	2	5	0
11	0	0	0	0	0	0
5	5	6	6	6
